\ Model (null)_copy
\ LP format - for model browsing. Use MPS format to capture full model detail.
Minimize
 
Subject To
 c1_2: y2_1 + y2_3 + y2_4 + y2_5 + y2_6 >= 1
 c5_2: y0_2 + y1_2 - y2_1 - y2_3 - y2_4 - y2_5 - y2_6 + y3_2 + y4_2 + y5_2
   = 0
 c15_023: 1236 x0_2 + 1236 x2_3 - 1236 y0_2 - 1236 y2_3 >= -2470
 c15_124: 1236 x1_2 + 1236 x2_4 - 1236 y1_2 - 1236 y2_4 >= -2470
 c15_125: 1236 x1_2 + 1236 x2_5 - 1236 y1_2 - 1236 y2_5 >= -2470
 c15_126: 1236 x1_2 + 1236 x2_6 - 1236 y1_2 - 1236 y2_6 >= -2470
 c15_323: 1236 x2_3 + 1236 x3_2 - 1236 y2_3 - 1236 y3_2 >= -2470
 c15_326: 1236 x2_6 + 1236 x3_2 - 1236 y2_6 - 1236 y3_2 >= -2470
 c15_425: 1236 x2_5 + 1236 x4_2 - 1236 y2_5 - 1236 y4_2 >= -2470
 c15_426: 1236 x2_6 + 1236 x4_2 - 1236 y2_6 - 1236 y4_2 >= -2470
 c15_521: 1236 x2_1 + 1236 x5_2 - 1236 y2_1 - 1236 y5_2 >= -2470
 c15_524: 1236 x2_4 + 1236 x5_2 - 1236 y2_4 - 1236 y5_2 >= -2470
 c17_021: 1236 x2_1 - 1236 y0_2 - 1236 y2_1 >= -2470
 c17_025: 1236 x2_5 - 1236 y0_2 - 1236 y2_5 >= -2470
 c17_123: 1236 x2_3 - 1236 y1_2 - 1236 y2_3 >= -2470
 c17_242: 1236 x4_2 - 1236 y2_4 - 1236 y4_2 >= -2470
 c17_321: 1236 x2_1 - 1236 y2_1 - 1236 y3_2 >= -2470
 c17_324: 1236 x2_4 - 1236 y2_4 - 1236 y3_2 >= -2470
 c17_421: 1236 x2_1 - 1236 y2_1 - 1236 y4_2 >= -2470
 c17_423: 1236 x2_3 - 1236 y2_3 - 1236 y4_2 >= -2470
 c17_526: 1236 x2_6 - 1236 y2_6 - 1236 y5_2 >= -2470
 c18_024: 1236 x0_2 - 1236 y0_2 - 1236 y2_4 >= -2470
 c18_026: 1236 x0_2 - 1236 y0_2 - 1236 y2_6 >= -2470
 c18_121: 1236 x1_2 - 1236 y1_2 - 1236 y2_1 >= -2470
 c18_325: 1236 x3_2 - 1236 y2_5 - 1236 y3_2 >= -2470
 c18_523: 1236 x5_2 - 1236 y2_3 - 1236 y5_2 >= -2470
 c18_525: 1236 x5_2 - 1236 y2_5 - 1236 y5_2 >= -2470
Bounds
 x0_2 = 0
 x1_2 = 0
 x2_1 = 0
 x2_3 = 0
 x2_4 = 0
 x2_5 = 0
 x2_6 = 0
 x3_2 = 0
 x4_2 = 0
 x5_2 = 0
Binaries
 x0_2 x1_2 x2_1 x2_3 x2_4 x2_5 x2_6 x3_2 x4_2 x5_2 y0_2 y1_2 y2_1 y2_3 y2_4
 y2_5 y2_6 y3_2 y4_2 y5_2
End
